Minimize
  obj: x0 + x1 + x2 + x3 + x4 + x5 + x6 + x7 + x8 + x9

Subject To
  c0: x1 + x2 + x4 + x5 + x7 = 34
  c1: x1 + x6 = 26
  c2: x2 + x3 + x4 + x6 + x7 + x9 = 31
  c3: x2 + x3 + x4 + x5 = 10
  c4: x1 + x4 + x7 + x8 + x9 = 54
  c5: x8 = 18
  c6: x0 + x1 + x2 + x3 + x5 + x7 = 48
  c7: x0 + x1 + x2 + x4 + x5 = 38

Bounds
  x0 >= 0
  x1 >= 0
  x2 >= 0
  x3 >= 0
  x4 >= 0
  x5 >= 0
  x6 >= 0
  x7 >= 0
  x8 >= 0
  x9 >= 0

Generals
  x0 x1 x2 x3 x4 x5 x6 x7 x8 x9

End
